p cnf 216 1532
e 10 11 12 13 35 36 37 38 60 61 62 63 85 86 87 88 110 111 112 113 135 136 137 138 160 161 162 163 185 186 187 188 0
r 0.5 210 211 212 213 214 215 216  0
e 1 2 3 4 5 6 7 8 9  14 15 16 17 18 19 20 21 22 23 24 25 26 27 28 29 30 31 32 33 34 39 40 41 42 43 44 45 46 47 48 49 50 51 52 53 54 55 56 57 58 59 64 65 66 67 68 69 70 71 72 73 74 75 76 77 78 79 80 81 82 83 84 89 90 91 92 93 94 95 96 97 98 99 100 101 102 103 104 105 106 107 108 109 114 115 116 117 118 119 120 121 122 123 124 125 126 127 128 129 130 131 132 133 134 139 140 141 142 143 144 145 146 147 148 149 150 151 152 153 154 155 156 157 158 159 164 165 166 167 168 169 170 171 172 173 174 175 176 177 178 179 180 181 182 183 184 189 190 191 192 193 194 195 196 197 198 199 200 201 202 203 204 205 206 207 208 209 0
210 211 212 213 214 215 216 1 0
210 211 212 213 214 215 216 -2 0
210 211 212 213 214 215 216 -3 0
210 211 212 213 214 215 216 4 0
210 211 212 213 214 215 216 -5 0
210 211 212 213 214 215 216 -6 0
210 211 212 213 214 215 216 -7 0
210 211 212 213 214 215 216 -8 0
210 211 212 213 214 215 216 9 0
210 211 212 213 214 215 -216 1 0
210 211 212 213 214 215 -216 -2 0
210 211 212 213 214 215 -216 -3 0
210 211 212 213 214 215 -216 -4 0
210 211 212 213 214 215 -216 -5 0
210 211 212 213 214 215 -216 -6 0
210 211 212 213 214 215 -216 -7 0
210 211 212 213 214 215 -216 -8 0
210 211 212 213 214 215 -216 9 0
210 211 212 213 214 -215 216 1 0
210 211 212 213 214 -215 216 -2 0
210 211 212 213 214 -215 216 3 0
210 211 212 213 214 -215 216 4 0
210 211 212 213 214 -215 216 -5 0
210 211 212 213 214 -215 216 -6 0
210 211 212 213 214 -215 216 -7 0
210 211 212 213 214 -215 216 -8 0
210 211 212 213 214 -215 216 9 0
210 211 212 213 214 -215 -216 1 0
210 211 212 213 214 -215 -216 -2 0
210 211 212 213 214 -215 -216 3 0
210 211 212 213 214 -215 -216 -4 0
210 211 212 213 214 -215 -216 -5 0
210 211 212 213 214 -215 -216 -6 0
210 211 212 213 214 -215 -216 -7 0
210 211 212 213 214 -215 -216 -8 0
210 211 212 213 214 -215 -216 9 0
210 211 212 213 -214 215 216 1 0
210 211 212 213 -214 215 216 2 0
210 211 212 213 -214 215 216 3 0
210 211 212 213 -214 215 216 4 0
210 211 212 213 -214 215 216 -5 0
210 211 212 213 -214 215 216 -6 0
210 211 212 213 -214 215 216 -7 0
210 211 212 213 -214 215 216 -8 0
210 211 212 213 -214 215 216 9 0
210 211 212 213 -214 215 -216 1 0
210 211 212 213 -214 215 -216 2 0
210 211 212 213 -214 215 -216 3 0
210 211 212 213 -214 215 -216 -4 0
210 211 212 213 -214 215 -216 -5 0
210 211 212 213 -214 215 -216 -6 0
210 211 212 213 -214 215 -216 -7 0
210 211 212 213 -214 215 -216 -8 0
210 211 212 213 -214 215 -216 9 0
210 211 212 213 -214 -215 216 1 0
210 211 212 213 -214 -215 216 2 0
210 211 212 213 -214 -215 216 3 0
210 211 212 213 -214 -215 216 4 0
210 211 212 213 -214 -215 216 5 0
210 211 212 213 -214 -215 216 -6 0
210 211 212 213 -214 -215 216 -7 0
210 211 212 213 -214 -215 216 -8 0
210 211 212 213 -214 -215 216 9 0
210 211 212 213 -214 -215 -216 1 0
210 211 212 213 -214 -215 -216 2 0
210 211 212 213 -214 -215 -216 3 0
210 211 212 213 -214 -215 -216 -4 0
210 211 212 213 -214 -215 -216 5 0
210 211 212 213 -214 -215 -216 -6 0
210 211 212 213 -214 -215 -216 -7 0
210 211 212 213 -214 -215 -216 -8 0
210 211 212 213 -214 -215 -216 9 0
210 211 212 -213 214 215 216 1 0
210 211 212 -213 214 215 216 2 0
210 211 212 -213 214 215 216 -3 0
210 211 212 -213 214 215 216 4 0
210 211 212 -213 214 215 216 -5 0
210 211 212 -213 214 215 216 -6 0
210 211 212 -213 214 215 216 -7 0
210 211 212 -213 214 215 216 -8 0
210 211 212 -213 214 215 216 9 0
210 211 212 -213 214 215 -216 1 0
210 211 212 -213 214 215 -216 2 0
210 211 212 -213 214 215 -216 -3 0
210 211 212 -213 214 215 -216 4 0
210 211 212 -213 214 215 -216 5 0
210 211 212 -213 214 215 -216 -6 0
210 211 212 -213 214 215 -216 -7 0
210 211 212 -213 214 215 -216 -8 0
210 211 212 -213 214 215 -216 9 0
210 211 212 -213 214 -215 216 1 0
210 211 212 -213 214 -215 216 2 0
210 211 212 -213 214 -215 216 -3 0
210 211 212 -213 214 -215 216 -4 0
210 211 212 -213 214 -215 216 5 0
210 211 212 -213 214 -215 216 -6 0
210 211 212 -213 214 -215 216 -7 0
210 211 212 -213 214 -215 216 -8 0
210 211 212 -213 214 -215 216 9 0
210 211 212 -213 214 -215 -216 1 0
210 211 212 -213 214 -215 -216 2 0
210 211 212 -213 214 -215 -216 -3 0
210 211 212 -213 214 -215 -216 -4 0
210 211 212 -213 214 -215 -216 -5 0
210 211 212 -213 214 -215 -216 -6 0
210 211 212 -213 214 -215 -216 -7 0
210 211 212 -213 214 -215 -216 -8 0
210 211 212 -213 214 -215 -216 9 0
210 211 212 -213 -214 215 216 1 0
210 211 212 -213 -214 215 216 -2 0
210 211 212 -213 -214 215 216 3 0
210 211 212 -213 -214 215 216 -4 0
210 211 212 -213 -214 215 216 -5 0
210 211 212 -213 -214 215 216 6 0
210 211 212 -213 -214 215 216 -7 0
210 211 212 -213 -214 215 216 -8 0
210 211 212 -213 -214 215 216 9 0
210 211 212 -213 -214 215 -216 1 0
210 211 212 -213 -214 215 -216 -2 0
210 211 212 -213 -214 215 -216 3 0
210 211 212 -213 -214 215 -216 4 0
210 211 212 -213 -214 215 -216 -5 0
210 211 212 -213 -214 215 -216 6 0
210 211 212 -213 -214 215 -216 -7 0
210 211 212 -213 -214 215 -216 -8 0
210 211 212 -213 -214 215 -216 9 0
210 211 212 -213 -214 -215 216 1 0
210 211 212 -213 -214 -215 216 2 0
210 211 212 -213 -214 -215 216 3 0
210 211 212 -213 -214 -215 216 4 0
210 211 212 -213 -214 -215 216 -5 0
210 211 212 -213 -214 -215 216 6 0
210 211 212 -213 -214 -215 216 -7 0
210 211 212 -213 -214 -215 216 -8 0
210 211 212 -213 -214 -215 216 9 0
210 211 212 -213 -214 -215 -216 1 0
210 211 212 -213 -214 -215 -216 2 0
210 211 212 -213 -214 -215 -216 3 0
210 211 212 -213 -214 -215 -216 -4 0
210 211 212 -213 -214 -215 -216 -5 0
210 211 212 -213 -214 -215 -216 6 0
210 211 212 -213 -214 -215 -216 -7 0
210 211 212 -213 -214 -215 -216 -8 0
210 211 212 -213 -214 -215 -216 9 0
210 211 -212 213 214 215 216 1 0
210 211 -212 213 214 215 216 2 0
210 211 -212 213 214 215 216 3 0
210 211 -212 213 214 215 216 4 0
210 211 -212 213 214 215 216 5 0
210 211 -212 213 214 215 216 6 0
210 211 -212 213 214 215 216 -7 0
210 211 -212 213 214 215 216 -8 0
210 211 -212 213 214 215 216 9 0
210 211 -212 213 214 215 -216 1 0
210 211 -212 213 214 215 -216 2 0
210 211 -212 213 214 215 -216 3 0
210 211 -212 213 214 215 -216 -4 0
210 211 -212 213 214 215 -216 5 0
210 211 -212 213 214 215 -216 6 0
210 211 -212 213 214 215 -216 -7 0
210 211 -212 213 214 215 -216 -8 0
210 211 -212 213 214 215 -216 9 0
210 211 -212 213 214 -215 216 -1 0
210 211 -212 213 214 -215 216 -2 0
210 211 -212 213 214 -215 216 3 0
210 211 -212 213 214 -215 216 -4 0
210 211 -212 213 214 -215 216 -5 0
210 211 -212 213 214 -215 216 -6 0
210 211 -212 213 214 -215 216 -7 0
210 211 -212 213 214 -215 216 -8 0
210 211 -212 213 214 -215 216 9 0
210 211 -212 213 214 -215 -216 -1 0
210 211 -212 213 214 -215 -216 -2 0
210 211 -212 213 214 -215 -216 -3 0
210 211 -212 213 214 -215 -216 -4 0
210 211 -212 213 214 -215 -216 -5 0
210 211 -212 213 214 -215 -216 -6 0
210 211 -212 213 214 -215 -216 -7 0
210 211 -212 213 214 -215 -216 -8 0
210 211 -212 213 214 -215 -216 9 0
210 211 -212 213 -214 215 216 -1 0
210 211 -212 213 -214 215 216 -2 0
210 211 -212 213 -214 215 216 3 0
210 211 -212 213 -214 215 216 -4 0
210 211 -212 213 -214 215 216 -5 0
210 211 -212 213 -214 215 216 6 0
210 211 -212 213 -214 215 216 -7 0
210 211 -212 213 -214 215 216 -8 0
210 211 -212 213 -214 215 216 9 0
210 211 -212 213 -214 215 -216 -1 0
210 211 -212 213 -214 215 -216 2 0
210 211 -212 213 -214 215 -216 -3 0
210 211 -212 213 -214 215 -216 -4 0
210 211 -212 213 -214 215 -216 5 0
210 211 -212 213 -214 215 -216 -6 0
210 211 -212 213 -214 215 -216 -7 0
210 211 -212 213 -214 215 -216 -8 0
210 211 -212 213 -214 215 -216 9 0
210 211 -212 213 -214 -215 216 -1 0
210 211 -212 213 -214 -215 216 2 0
210 211 -212 213 -214 -215 216 -3 0
210 211 -212 213 -214 -215 216 -4 0
210 211 -212 213 -214 -215 216 -5 0
210 211 -212 213 -214 -215 216 -6 0
210 211 -212 213 -214 -215 216 -7 0
210 211 -212 213 -214 -215 216 -8 0
210 211 -212 213 -214 -215 216 9 0
210 211 -212 213 -214 -215 -216 -1 0
210 211 -212 213 -214 -215 -216 2 0
210 211 -212 213 -214 -215 -216 3 0
210 211 -212 213 -214 -215 -216 -4 0
210 211 -212 213 -214 -215 -216 5 0
210 211 -212 213 -214 -215 -216 -6 0
210 211 -212 213 -214 -215 -216 -7 0
210 211 -212 213 -214 -215 -216 -8 0
210 211 -212 213 -214 -215 -216 9 0
210 211 -212 -213 214 215 216 -1 0
210 211 -212 -213 214 215 216 2 0
210 211 -212 -213 214 215 216 3 0
210 211 -212 -213 214 215 216 -4 0
210 211 -212 -213 214 215 216 -5 0
210 211 -212 -213 214 215 216 -6 0
210 211 -212 -213 214 215 216 -7 0
210 211 -212 -213 214 215 216 -8 0
210 211 -212 -213 214 215 216 9 0
210 211 -212 -213 214 215 -216 -1 0
210 211 -212 -213 214 215 -216 2 0
210 211 -212 -213 214 215 -216 3 0
210 211 -212 -213 214 215 -216 -4 0
210 211 -212 -213 214 215 -216 5 0
210 211 -212 -213 214 215 -216 6 0
210 211 -212 -213 214 215 -216 -7 0
210 211 -212 -213 214 215 -216 -8 0
210 211 -212 -213 214 215 -216 9 0
210 211 -212 -213 214 -215 216 -1 0
210 211 -212 -213 214 -215 216 2 0
210 211 -212 -213 214 -215 216 3 0
210 211 -212 -213 214 -215 216 -4 0
210 211 -212 -213 214 -215 216 -5 0
210 211 -212 -213 214 -215 216 6 0
210 211 -212 -213 214 -215 216 -7 0
210 211 -212 -213 214 -215 216 -8 0
210 211 -212 -213 214 -215 216 9 0
210 211 -212 -213 214 -215 -216 1 0
210 211 -212 -213 214 -215 -216 -2 0
210 211 -212 -213 214 -215 -216 3 0
210 211 -212 -213 214 -215 -216 -4 0
210 211 -212 -213 214 -215 -216 -5 0
210 211 -212 -213 214 -215 -216 6 0
210 211 -212 -213 214 -215 -216 -7 0
210 211 -212 -213 214 -215 -216 8 0
210 211 -212 -213 214 -215 -216 -9 0
210 211 -212 -213 -214 215 216 1 0
210 211 -212 -213 -214 215 216 -2 0
210 211 -212 -213 -214 215 216 3 0
210 211 -212 -213 -214 215 216 -4 0
210 211 -212 -213 -214 215 216 -5 0
210 211 -212 -213 -214 215 216 -6 0
210 211 -212 -213 -214 215 216 -7 0
210 211 -212 -213 -214 215 216 8 0
210 211 -212 -213 -214 215 216 -9 0
210 211 -212 -213 -214 215 -216 1 0
210 211 -212 -213 -214 215 -216 -2 0
210 211 -212 -213 -214 215 -216 3 0
210 211 -212 -213 -214 215 -216 4 0
210 211 -212 -213 -214 215 -216 -5 0
210 211 -212 -213 -214 215 -216 -6 0
210 211 -212 -213 -214 215 -216 -7 0
210 211 -212 -213 -214 215 -216 8 0
210 211 -212 -213 -214 215 -216 -9 0
210 211 -212 -213 -214 -215 216 1 0
210 211 -212 -213 -214 -215 216 -2 0
210 211 -212 -213 -214 -215 216 3 0
210 211 -212 -213 -214 -215 216 4 0
210 211 -212 -213 -214 -215 216 -5 0
210 211 -212 -213 -214 -215 216 6 0
210 211 -212 -213 -214 -215 216 -7 0
210 211 -212 -213 -214 -215 216 8 0
210 211 -212 -213 -214 -215 216 -9 0
210 211 -212 -213 -214 -215 -216 1 0
210 211 -212 -213 -214 -215 -216 2 0
210 211 -212 -213 -214 -215 -216 3 0
210 211 -212 -213 -214 -215 -216 4 0
210 211 -212 -213 -214 -215 -216 5 0
210 211 -212 -213 -214 -215 -216 -6 0
210 211 -212 -213 -214 -215 -216 -7 0
210 211 -212 -213 -214 -215 -216 8 0
210 211 -212 -213 -214 -215 -216 -9 0
210 -211 212 213 214 215 216 1 0
210 -211 212 213 214 215 216 2 0
210 -211 212 213 214 215 216 3 0
210 -211 212 213 214 215 216 4 0
210 -211 212 213 214 215 216 -5 0
210 -211 212 213 214 215 216 -6 0
210 -211 212 213 214 215 216 -7 0
210 -211 212 213 214 215 216 8 0
210 -211 212 213 214 215 216 -9 0
210 -211 212 213 214 215 -216 1 0
210 -211 212 213 214 215 -216 2 0
210 -211 212 213 214 215 -216 3 0
210 -211 212 213 214 215 -216 -4 0
210 -211 212 213 214 215 -216 -5 0
210 -211 212 213 214 215 -216 -6 0
210 -211 212 213 214 215 -216 -7 0
210 -211 212 213 214 215 -216 8 0
210 -211 212 213 214 215 -216 -9 0
210 -211 212 213 214 -215 216 1 0
210 -211 212 213 214 -215 216 2 0
210 -211 212 213 214 -215 216 3 0
210 -211 212 213 214 -215 216 -4 0
210 -211 212 213 214 -215 216 5 0
210 -211 212 213 214 -215 216 -6 0
210 -211 212 213 214 -215 216 -7 0
210 -211 212 213 214 -215 216 8 0
210 -211 212 213 214 -215 216 -9 0
210 -211 212 213 214 -215 -216 1 0
210 -211 212 213 214 -215 -216 2 0
210 -211 212 213 214 -215 -216 3 0
210 -211 212 213 214 -215 -216 4 0
210 -211 212 213 214 -215 -216 5 0
210 -211 212 213 214 -215 -216 6 0
210 -211 212 213 214 -215 -216 -7 0
210 -211 212 213 214 -215 -216 8 0
210 -211 212 213 214 -215 -216 -9 0
210 -211 212 213 -214 215 216 1 0
210 -211 212 213 -214 215 216 2 0
210 -211 212 213 -214 215 216 3 0
210 -211 212 213 -214 215 216 4 0
210 -211 212 213 -214 215 216 -5 0
210 -211 212 213 -214 215 216 6 0
210 -211 212 213 -214 215 216 -7 0
210 -211 212 213 -214 215 216 8 0
210 -211 212 213 -214 215 216 -9 0
210 -211 212 213 -214 215 -216 1 0
210 -211 212 213 -214 215 -216 2 0
210 -211 212 213 -214 215 -216 3 0
210 -211 212 213 -214 215 -216 -4 0
210 -211 212 213 -214 215 -216 -5 0
210 -211 212 213 -214 215 -216 6 0
210 -211 212 213 -214 215 -216 -7 0
210 -211 212 213 -214 215 -216 8 0
210 -211 212 213 -214 215 -216 -9 0
210 -211 212 213 -214 -215 216 1 0
210 -211 212 213 -214 -215 216 2 0
210 -211 212 213 -214 -215 216 3 0
210 -211 212 213 -214 -215 216 -4 0
210 -211 212 213 -214 -215 216 5 0
210 -211 212 213 -214 -215 216 6 0
210 -211 212 213 -214 -215 216 -7 0
210 -211 212 213 -214 -215 216 8 0
210 -211 212 213 -214 -215 216 -9 0
210 -211 212 213 -214 -215 -216 1 0
210 -211 212 213 -214 -215 -216 2 0
210 -211 212 213 -214 -215 -216 -3 0
210 -211 212 213 -214 -215 -216 -4 0
210 -211 212 213 -214 -215 -216 5 0
210 -211 212 213 -214 -215 -216 -6 0
210 -211 212 213 -214 -215 -216 -7 0
210 -211 212 213 -214 -215 -216 8 0
210 -211 212 213 -214 -215 -216 -9 0
210 -211 212 -213 214 215 216 1 0
210 -211 212 -213 214 215 216 2 0
210 -211 212 -213 214 215 216 -3 0
210 -211 212 -213 214 215 216 4 0
210 -211 212 -213 214 215 216 5 0
210 -211 212 -213 214 215 216 -6 0
210 -211 212 -213 214 215 216 -7 0
210 -211 212 -213 214 215 216 8 0
210 -211 212 -213 214 215 216 -9 0
210 -211 212 -213 214 215 -216 1 0
210 -211 212 -213 214 215 -216 -2 0
210 -211 212 -213 214 215 -216 -3 0
210 -211 212 -213 214 215 -216 4 0
210 -211 212 -213 214 215 -216 -5 0
210 -211 212 -213 214 215 -216 -6 0
210 -211 212 -213 214 215 -216 -7 0
210 -211 212 -213 214 215 -216 8 0
210 -211 212 -213 214 215 -216 -9 0
210 -211 212 -213 214 -215 216 1 0
210 -211 212 -213 214 -215 216 -2 0
210 -211 212 -213 214 -215 216 -3 0
210 -211 212 -213 214 -215 216 -4 0
210 -211 212 -213 214 -215 216 -5 0
210 -211 212 -213 214 -215 216 -6 0
210 -211 212 -213 214 -215 216 -7 0
210 -211 212 -213 214 -215 216 8 0
210 -211 212 -213 214 -215 216 -9 0
210 -211 212 -213 214 -215 -216 1 0
210 -211 212 -213 214 -215 -216 2 0
210 -211 212 -213 214 -215 -216 -3 0
210 -211 212 -213 214 -215 -216 -4 0
210 -211 212 -213 214 -215 -216 -5 0
210 -211 212 -213 214 -215 -216 -6 0
210 -211 212 -213 214 -215 -216 -7 0
210 -211 212 -213 214 -215 -216 8 0
210 -211 212 -213 214 -215 -216 -9 0
210 -211 212 -213 -214 215 216 1 0
210 -211 212 -213 -214 215 216 2 0
210 -211 212 -213 -214 215 216 -3 0
210 -211 212 -213 -214 215 216 4 0
210 -211 212 -213 -214 215 216 -5 0
210 -211 212 -213 -214 215 216 -6 0
210 -211 212 -213 -214 215 216 -7 0
210 -211 212 -213 -214 215 216 8 0
210 -211 212 -213 -214 215 216 -9 0
210 -211 212 -213 -214 215 -216 -1 0
210 -211 212 -213 -214 215 -216 -2 0
210 -211 212 -213 -214 215 -216 3 0
210 -211 212 -213 -214 215 -216 -4 0
210 -211 212 -213 -214 215 -216 -5 0
210 -211 212 -213 -214 215 -216 -6 0
210 -211 212 -213 -214 215 -216 -7 0
210 -211 212 -213 -214 215 -216 8 0
210 -211 212 -213 -214 215 -216 -9 0
210 -211 212 -213 -214 -215 216 -1 0
210 -211 212 -213 -214 -215 216 -2 0
210 -211 212 -213 -214 -215 216 3 0
210 -211 212 -213 -214 -215 216 -4 0
210 -211 212 -213 -214 -215 216 -5 0
210 -211 212 -213 -214 -215 216 6 0
210 -211 212 -213 -214 -215 216 -7 0
210 -211 212 -213 -214 -215 216 8 0
210 -211 212 -213 -214 -215 216 -9 0
210 -211 212 -213 -214 -215 -216 -1 0
210 -211 212 -213 -214 -215 -216 -2 0
210 -211 212 -213 -214 -215 -216 -3 0
210 -211 212 -213 -214 -215 -216 -4 0
210 -211 212 -213 -214 -215 -216 -5 0
210 -211 212 -213 -214 -215 -216 -6 0
210 -211 212 -213 -214 -215 -216 -7 0
210 -211 212 -213 -214 -215 -216 8 0
210 -211 212 -213 -214 -215 -216 -9 0
210 -211 -212 213 214 215 216 -1 0
210 -211 -212 213 214 215 216 2 0
210 -211 -212 213 214 215 216 3 0
210 -211 -212 213 214 215 216 -4 0
210 -211 -212 213 214 215 216 -5 0
210 -211 -212 213 214 215 216 6 0
210 -211 -212 213 214 215 216 -7 0
210 -211 -212 213 214 215 216 8 0
210 -211 -212 213 214 215 216 -9 0
210 -211 -212 213 214 215 -216 -1 0
210 -211 -212 213 214 215 -216 2 0
210 -211 -212 213 214 215 -216 3 0
210 -211 -212 213 214 215 -216 -4 0
210 -211 -212 213 214 215 -216 5 0
210 -211 -212 213 214 215 -216 6 0
210 -211 -212 213 214 215 -216 -7 0
210 -211 -212 213 214 215 -216 8 0
210 -211 -212 213 214 215 -216 -9 0
210 -211 -212 213 214 -215 216 -1 0
210 -211 -212 213 214 -215 216 2 0
210 -211 -212 213 214 -215 216 3 0
210 -211 -212 213 214 -215 216 -4 0
210 -211 -212 213 214 -215 216 5 0
210 -211 -212 213 214 -215 216 -6 0
210 -211 -212 213 214 -215 216 -7 0
210 -211 -212 213 214 -215 216 8 0
210 -211 -212 213 214 -215 216 -9 0
210 -211 -212 213 214 -215 -216 -1 0
210 -211 -212 213 214 -215 -216 2 0
210 -211 -212 213 214 -215 -216 3 0
210 -211 -212 213 214 -215 -216 -4 0
210 -211 -212 213 214 -215 -216 -5 0
210 -211 -212 213 214 -215 -216 -6 0
210 -211 -212 213 214 -215 -216 -7 0
210 -211 -212 213 214 -215 -216 8 0
210 -211 -212 213 214 -215 -216 -9 0
210 -211 -212 213 -214 215 216 -1 0
210 -211 -212 213 -214 215 216 2 0
210 -211 -212 213 -214 215 216 -3 0
210 -211 -212 213 -214 215 216 -4 0
210 -211 -212 213 -214 215 216 -5 0
210 -211 -212 213 -214 215 216 -6 0
210 -211 -212 213 -214 215 216 -7 0
210 -211 -212 213 -214 215 216 8 0
210 -211 -212 213 -214 215 216 -9 0
210 -211 -212 213 -214 215 -216 -1 0
210 -211 -212 213 -214 215 -216 2 0
210 -211 -212 213 -214 215 -216 -3 0
210 -211 -212 213 -214 215 -216 -4 0
210 -211 -212 213 -214 215 -216 5 0
210 -211 -212 213 -214 215 -216 -6 0
210 -211 -212 213 -214 215 -216 -7 0
210 -211 -212 213 -214 215 -216 8 0
210 -211 -212 213 -214 215 -216 -9 0
210 -211 -212 213 -214 -215 216 -1 0
210 -211 -212 213 -214 -215 216 2 0
210 -211 -212 213 -214 -215 216 3 0
210 -211 -212 213 -214 -215 216 -4 0
210 -211 -212 213 -214 -215 216 -5 0
210 -211 -212 213 -214 -215 216 6 0
210 -211 -212 213 -214 -215 216 7 0
210 -211 -212 213 -214 -215 216 -8 0
210 -211 -212 213 -214 -215 216 -9 0
210 -211 -212 213 -214 -215 -216 -1 0
210 -211 -212 213 -214 -215 -216 2 0
210 -211 -212 213 -214 -215 -216 3 0
210 -211 -212 213 -214 -215 -216 -4 0
210 -211 -212 213 -214 -215 -216 5 0
210 -211 -212 213 -214 -215 -216 6 0
210 -211 -212 213 -214 -215 -216 7 0
210 -211 -212 213 -214 -215 -216 -8 0
210 -211 -212 213 -214 -215 -216 -9 0
210 -211 -212 -213 214 215 216 1 0
210 -211 -212 -213 214 215 216 2 0
210 -211 -212 -213 214 215 216 3 0
210 -211 -212 -213 214 215 216 4 0
210 -211 -212 -213 214 215 216 5 0
210 -211 -212 -213 214 215 216 6 0
210 -211 -212 -213 214 215 216 7 0
210 -211 -212 -213 214 215 216 -8 0
210 -211 -212 -213 214 215 216 -9 0
210 -211 -212 -213 214 215 -216 1 0
210 -211 -212 -213 214 215 -216 2 0
210 -211 -212 -213 214 215 -216 3 0
210 -211 -212 -213 214 215 -216 -4 0
210 -211 -212 -213 214 215 -216 5 0
210 -211 -212 -213 214 215 -216 6 0
210 -211 -212 -213 214 215 -216 7 0
210 -211 -212 -213 214 215 -216 -8 0
210 -211 -212 -213 214 215 -216 -9 0
210 -211 -212 -213 214 -215 216 1 0
210 -211 -212 -213 214 -215 216 2 0
210 -211 -212 -213 214 -215 216 3 0
210 -211 -212 -213 214 -215 216 -4 0
210 -211 -212 -213 214 -215 216 -5 0
210 -211 -212 -213 214 -215 216 6 0
210 -211 -212 -213 214 -215 216 7 0
210 -211 -212 -213 214 -215 216 -8 0
210 -211 -212 -213 214 -215 216 -9 0
210 -211 -212 -213 214 -215 -216 1 0
210 -211 -212 -213 214 -215 -216 2 0
210 -211 -212 -213 214 -215 -216 3 0
210 -211 -212 -213 214 -215 -216 4 0
210 -211 -212 -213 214 -215 -216 -5 0
210 -211 -212 -213 214 -215 -216 6 0
210 -211 -212 -213 214 -215 -216 7 0
210 -211 -212 -213 214 -215 -216 -8 0
210 -211 -212 -213 214 -215 -216 -9 0
210 -211 -212 -213 -214 215 216 1 0
210 -211 -212 -213 -214 215 216 2 0
210 -211 -212 -213 -214 215 216 3 0
210 -211 -212 -213 -214 215 216 -4 0
210 -211 -212 -213 -214 215 216 5 0
210 -211 -212 -213 -214 215 216 -6 0
210 -211 -212 -213 -214 215 216 7 0
210 -211 -212 -213 -214 215 216 -8 0
210 -211 -212 -213 -214 215 216 -9 0
210 -211 -212 -213 -214 215 -216 1 0
210 -211 -212 -213 -214 215 -216 2 0
210 -211 -212 -213 -214 215 -216 -3 0
210 -211 -212 -213 -214 215 -216 -4 0
210 -211 -212 -213 -214 215 -216 5 0
210 -211 -212 -213 -214 215 -216 -6 0
210 -211 -212 -213 -214 215 -216 7 0
210 -211 -212 -213 -214 215 -216 -8 0
210 -211 -212 -213 -214 215 -216 -9 0
210 -211 -212 -213 -214 -215 216 1 0
210 -211 -212 -213 -214 -215 216 2 0
210 -211 -212 -213 -214 -215 216 -3 0
210 -211 -212 -213 -214 -215 216 4 0
210 -211 -212 -213 -214 -215 216 5 0
210 -211 -212 -213 -214 -215 216 -6 0
210 -211 -212 -213 -214 -215 216 7 0
210 -211 -212 -213 -214 -215 216 -8 0
210 -211 -212 -213 -214 -215 216 -9 0
210 -211 -212 -213 -214 -215 -216 1 0
210 -211 -212 -213 -214 -215 -216 2 0
210 -211 -212 -213 -214 -215 -216 3 0
210 -211 -212 -213 -214 -215 -216 4 0
210 -211 -212 -213 -214 -215 -216 5 0
210 -211 -212 -213 -214 -215 -216 -6 0
210 -211 -212 -213 -214 -215 -216 7 0
210 -211 -212 -213 -214 -215 -216 -8 0
210 -211 -212 -213 -214 -215 -216 -9 0
-210 211 212 213 214 215 216 1 0
-210 211 212 213 214 215 216 2 0
-210 211 212 213 214 215 216 3 0
-210 211 212 213 214 215 216 4 0
-210 211 212 213 214 215 216 -5 0
-210 211 212 213 214 215 216 -6 0
-210 211 212 213 214 215 216 7 0
-210 211 212 213 214 215 216 -8 0
-210 211 212 213 214 215 216 -9 0
-210 211 212 213 214 215 -216 1 0
-210 211 212 213 214 215 -216 2 0
-210 211 212 213 214 215 -216 -3 0
-210 211 212 213 214 215 -216 4 0
-210 211 212 213 214 215 -216 -5 0
-210 211 212 213 214 215 -216 -6 0
-210 211 212 213 214 215 -216 7 0
-210 211 212 213 214 215 -216 -8 0
-210 211 212 213 214 215 -216 -9 0
-210 211 212 213 214 -215 216 1 0
-210 211 212 213 214 -215 216 2 0
-210 211 212 213 214 -215 216 -3 0
-210 211 212 213 214 -215 216 -4 0
-210 211 212 213 214 -215 216 -5 0
-210 211 212 213 214 -215 216 -6 0
-210 211 212 213 214 -215 216 7 0
-210 211 212 213 214 -215 216 -8 0
-210 211 212 213 214 -215 216 -9 0
-210 211 212 213 214 -215 -216 1 0
-210 211 212 213 214 -215 -216 2 0
-210 211 212 213 214 -215 -216 3 0
-210 211 212 213 214 -215 -216 -4 0
-210 211 212 213 214 -215 -216 -5 0
-210 211 212 213 214 -215 -216 -6 0
-210 211 212 213 214 -215 -216 7 0
-210 211 212 213 214 -215 -216 -8 0
-210 211 212 213 214 -215 -216 -9 0
-210 211 212 213 -214 215 216 -1 0
-210 211 212 213 -214 215 216 2 0
-210 211 212 213 -214 215 216 -3 0
-210 211 212 213 -214 215 216 -4 0
-210 211 212 213 -214 215 216 -5 0
-210 211 212 213 -214 215 216 -6 0
-210 211 212 213 -214 215 216 7 0
-210 211 212 213 -214 215 216 -8 0
-210 211 212 213 -214 215 216 -9 0
-210 211 212 213 -214 215 -216 -1 0
-210 211 212 213 -214 215 -216 2 0
-210 211 212 213 -214 215 -216 -3 0
-210 211 212 213 -214 215 -216 -4 0
-210 211 212 213 -214 215 -216 5 0
-210 211 212 213 -214 215 -216 -6 0
-210 211 212 213 -214 215 -216 7 0
-210 211 212 213 -214 215 -216 -8 0
-210 211 212 213 -214 215 -216 -9 0
-210 211 212 213 -214 -215 216 -1 0
-210 211 212 213 -214 -215 216 2 0
-210 211 212 213 -214 -215 216 3 0
-210 211 212 213 -214 -215 216 -4 0
-210 211 212 213 -214 -215 216 -5 0
-210 211 212 213 -214 -215 216 -6 0
-210 211 212 213 -214 -215 216 7 0
-210 211 212 213 -214 -215 216 -8 0
-210 211 212 213 -214 -215 216 -9 0
-210 211 212 213 -214 -215 -216 -1 0
-210 211 212 213 -214 -215 -216 2 0
-210 211 212 213 -214 -215 -216 3 0
-210 211 212 213 -214 -215 -216 -4 0
-210 211 212 213 -214 -215 -216 5 0
-210 211 212 213 -214 -215 -216 -6 0
-210 211 212 213 -214 -215 -216 7 0
-210 211 212 213 -214 -215 -216 -8 0
-210 211 212 213 -214 -215 -216 -9 0
-210 211 212 -213 214 215 216 1 0
-210 211 212 -213 214 215 216 -2 0
-210 211 212 -213 214 215 216 -3 0
-210 211 212 -213 214 215 216 4 0
-210 211 212 -213 214 215 216 -5 0
-210 211 212 -213 214 215 216 -6 0
-210 211 212 -213 214 215 216 7 0
-210 211 212 -213 214 215 216 -8 0
-210 211 212 -213 214 215 216 -9 0
-210 211 212 -213 214 215 -216 1 0
-210 211 212 -213 214 215 -216 -2 0
-210 211 212 -213 214 215 -216 -3 0
-210 211 212 -213 214 215 -216 -4 0
-210 211 212 -213 214 215 -216 -5 0
-210 211 212 -213 214 215 -216 -6 0
-210 211 212 -213 214 215 -216 7 0
-210 211 212 -213 214 215 -216 -8 0
-210 211 212 -213 214 215 -216 -9 0
-210 211 212 -213 214 -215 216 1 0
-210 211 212 -213 214 -215 216 -2 0
-210 211 212 -213 214 -215 216 3 0
-210 211 212 -213 214 -215 216 -4 0
-210 211 212 -213 214 -215 216 -5 0
-210 211 212 -213 214 -215 216 -6 0
-210 211 212 -213 214 -215 216 7 0
-210 211 212 -213 214 -215 216 -8 0
-210 211 212 -213 214 -215 216 -9 0
-210 211 212 -213 214 -215 -216 1 0
-210 211 212 -213 214 -215 -216 -2 0
-210 211 212 -213 214 -215 -216 3 0
-210 211 212 -213 214 -215 -216 4 0
-210 211 212 -213 214 -215 -216 -5 0
-210 211 212 -213 214 -215 -216 -6 0
-210 211 212 -213 214 -215 -216 7 0
-210 211 212 -213 214 -215 -216 -8 0
-210 211 212 -213 214 -215 -216 -9 0
-210 211 212 -213 -214 215 216 -1 0
-210 211 212 -213 -214 215 216 -2 0
-210 211 212 -213 -214 215 216 3 0
-210 211 212 -213 -214 215 216 -4 0
-210 211 212 -213 -214 215 216 -5 0
-210 211 212 -213 -214 215 216 -6 0
-210 211 212 -213 -214 215 216 7 0
-210 211 212 -213 -214 215 216 -8 0
-210 211 212 -213 -214 215 216 -9 0
-210 211 212 -213 -214 215 -216 -1 0
-210 211 212 -213 -214 215 -216 -2 0
-210 211 212 -213 -214 215 -216 -3 0
-210 211 212 -213 -214 215 -216 -4 0
-210 211 212 -213 -214 215 -216 -5 0
-210 211 212 -213 -214 215 -216 -6 0
-210 211 212 -213 -214 215 -216 7 0
-210 211 212 -213 -214 215 -216 -8 0
-210 211 212 -213 -214 215 -216 -9 0
-210 211 212 -213 -214 -215 216 1 0
-210 211 212 -213 -214 -215 216 -2 0
-210 211 212 -213 -214 -215 216 3 0
-210 211 212 -213 -214 -215 216 -4 0
-210 211 212 -213 -214 -215 216 -5 0
-210 211 212 -213 -214 -215 216 6 0
-210 211 212 -213 -214 -215 216 7 0
-210 211 212 -213 -214 -215 216 -8 0
-210 211 212 -213 -214 -215 216 -9 0
-210 211 212 -213 -214 -215 -216 1 0
-210 211 212 -213 -214 -215 -216 -2 0
-210 211 212 -213 -214 -215 -216 3 0
-210 211 212 -213 -214 -215 -216 4 0
-210 211 212 -213 -214 -215 -216 -5 0
-210 211 212 -213 -214 -215 -216 6 0
-210 211 212 -213 -214 -215 -216 7 0
-210 211 212 -213 -214 -215 -216 -8 0
-210 211 212 -213 -214 -215 -216 -9 0
-210 211 -212 213 214 215 216 -1 0
-210 211 -212 213 214 215 216 -2 0
-210 211 -212 213 214 215 216 3 0
-210 211 -212 213 214 215 216 -4 0
-210 211 -212 213 214 215 216 -5 0
-210 211 -212 213 214 215 216 6 0
-210 211 -212 213 214 215 216 7 0
-210 211 -212 213 214 215 216 -8 0
-210 211 -212 213 214 215 216 -9 0
206 0
204 0
205 0
13 12 10 11 0
-10 -11 0
-10 -12 0
-10 -13 0
-11 -12 0
-11 -13 0
-12 -13 0
-9 -11 19 0
9 -19 0
11 -19 0
-8 -11 18 0
8 -18 0
11 -18 0
-7 -11 17 0
7 -17 0
11 -17 0
-10 -9 16 0
9 -16 0
10 -16 0
-10 -8 15 0
8 -15 0
10 -15 0
-10 -7 14 0
7 -14 0
10 -14 0
7 -14 0
10 -14 0
-10 -7 14 0
8 -15 0
10 -15 0
-10 -8 15 0
9 -16 0
10 -16 0
-10 -9 16 0
7 -17 0
11 -17 0
-7 -11 17 0
8 -18 0
11 -18 0
-8 -11 18 0
9 -19 0
11 -19 0
-9 -11 19 0
7 -20 0
12 -20 0
-7 -12 20 0
8 -21 0
12 -21 0
-8 -12 21 0
9 -22 0
12 -22 0
-9 -12 22 0
7 -23 0
1 -23 0
13 -23 0
-13 -7 -1 23 0
8 -24 0
2 -24 0
13 -24 0
-13 -8 -2 24 0
9 -25 0
3 -25 0
13 -25 0
-13 -9 -3 25 0
-10 -7 -32 0
-10 -7 34 0
-10 -8 -33 0
-10 -8 32 0
-10 -9 -34 0
-10 -9 33 0
-32 -7 -11 0
33 -7 -11 0
34 -8 -11 0
-33 -8 -11 0
32 -9 -11 0
-34 -9 -11 0
-7 -12 26 0
-8 -12 27 0
-9 -12 28 0
-13 -7 -1 29 0
-13 -8 -2 30 0
-13 -9 -3 31 0
17 14 -7 32 0
18 14 9 -34 0
18 15 -8 33 0
19 15 7 -32 0
19 16 34 -9 0
17 16 8 -33 0
20 1 -26 0
21 2 -27 0
22 3 -28 0
23 4 -29 0
24 5 -30 0
25 6 -31 0
26 -1 0
27 -2 0
28 -3 0
29 -4 0
30 -5 0
31 -6 0
38 37 35 36 0
-35 -36 0
-35 -37 0
-35 -38 0
-36 -37 0
-36 -38 0
-37 -38 0
-34 -36 44 0
34 -44 0
36 -44 0
-34 -36 44 0
34 -44 0
36 -44 0
-33 -36 43 0
33 -43 0
36 -43 0
-33 -36 43 0
33 -43 0
36 -43 0
-32 -36 42 0
32 -42 0
36 -42 0
-32 -36 42 0
32 -42 0
36 -42 0
-34 -35 41 0
34 -41 0
35 -41 0
-34 -35 41 0
34 -41 0
35 -41 0
-33 -35 40 0
33 -40 0
35 -40 0
-33 -35 40 0
33 -40 0
35 -40 0
-32 -35 39 0
32 -39 0
35 -39 0
-32 -35 39 0
32 -39 0
35 -39 0
32 -45 0
37 -45 0
-32 -37 45 0
33 -46 0
37 -46 0
-33 -37 46 0
34 -47 0
37 -47 0
-34 -37 47 0
32 -48 0
26 -48 0
38 -48 0
-38 -32 -26 48 0
33 -49 0
27 -49 0
38 -49 0
-38 -33 -27 49 0
34 -50 0
28 -50 0
38 -50 0
-38 -34 -28 50 0
-32 -35 -57 0
-32 -35 59 0
-33 -35 -58 0
-33 -35 57 0
-34 -35 -59 0
-34 -35 58 0
-32 -36 -57 0
-32 -36 58 0
-33 -36 59 0
-33 -36 -58 0
-34 -36 57 0
-34 -36 -59 0
-32 -37 51 0
-33 -37 52 0
-34 -37 53 0
-38 -32 -26 54 0
-38 -33 -27 55 0
-38 -34 -28 56 0
42 39 -32 57 0
43 39 34 -59 0
43 40 -33 58 0
44 40 32 -57 0
44 41 -34 59 0
42 41 33 -58 0
45 26 -51 0
46 27 -52 0
47 28 -53 0
48 29 -54 0
49 30 -55 0
50 31 -56 0
-26 51 0
-27 52 0
-28 53 0
-29 54 0
-30 55 0
-31 56 0
63 62 60 61 0
-60 -61 0
-60 -62 0
-60 -63 0
-61 -62 0
-61 -63 0
-62 -63 0
-59 -61 69 0
59 -69 0
61 -69 0
-59 -61 69 0
59 -69 0
61 -69 0
-58 -61 68 0
58 -68 0
61 -68 0
-58 -61 68 0
58 -68 0
61 -68 0
-57 -61 67 0
57 -67 0
61 -67 0
-57 -61 67 0
57 -67 0
61 -67 0
-59 -60 66 0
59 -66 0
60 -66 0
-59 -60 66 0
59 -66 0
60 -66 0
-58 -60 65 0
58 -65 0
60 -65 0
-58 -60 65 0
58 -65 0
60 -65 0
-57 -60 64 0
57 -64 0
60 -64 0
-57 -60 64 0
57 -64 0
60 -64 0
57 -70 0
62 -70 0
-57 -62 70 0
58 -71 0
62 -71 0
-58 -62 71 0
59 -72 0
62 -72 0
-59 -62 72 0
57 -73 0
51 -73 0
63 -73 0
-63 -57 -51 73 0
58 -74 0
52 -74 0
63 -74 0
-63 -58 -52 74 0
59 -75 0
53 -75 0
63 -75 0
-63 -59 -53 75 0
-57 -60 -82 0
-57 -60 84 0
-58 -60 -83 0
-58 -60 82 0
-59 -60 -84 0
-59 -60 83 0
-57 -61 -82 0
-57 -61 83 0
-58 -61 84 0
-58 -61 -83 0
-59 -61 82 0
-59 -61 -84 0
-57 -62 76 0
-58 -62 77 0
-59 -62 78 0
-63 -57 -51 79 0
-63 -58 -52 80 0
-63 -59 -53 81 0
67 64 -57 82 0
68 64 59 -84 0
68 65 -58 83 0
69 65 57 -82 0
69 66 -59 84 0
67 66 58 -83 0
70 51 -76 0
71 52 -77 0
72 53 -78 0
73 54 -79 0
74 55 -80 0
75 56 -81 0
-51 76 0
-52 77 0
-53 78 0
-54 79 0
-55 80 0
-56 81 0
88 87 85 86 0
-85 -86 0
-85 -87 0
-85 -88 0
-86 -87 0
-86 -88 0
-87 -88 0
-84 -86 94 0
84 -94 0
86 -94 0
-84 -86 94 0
84 -94 0
86 -94 0
-83 -86 93 0
83 -93 0
86 -93 0
-83 -86 93 0
83 -93 0
86 -93 0
-82 -86 92 0
82 -92 0
86 -92 0
-82 -86 92 0
82 -92 0
86 -92 0
-84 -85 91 0
84 -91 0
85 -91 0
-84 -85 91 0
84 -91 0
85 -91 0
-83 -85 90 0
83 -90 0
85 -90 0
-83 -85 90 0
83 -90 0
85 -90 0
-82 -85 89 0
82 -89 0
85 -89 0
-82 -85 89 0
82 -89 0
85 -89 0
82 -95 0
87 -95 0
-82 -87 95 0
83 -96 0
87 -96 0
-83 -87 96 0
84 -97 0
87 -97 0
-84 -87 97 0
82 -98 0
76 -98 0
88 -98 0
-88 -82 -76 98 0
83 -99 0
77 -99 0
88 -99 0
-88 -83 -77 99 0
84 -100 0
78 -100 0
88 -100 0
-88 -84 -78 100 0
-82 -85 -107 0
-82 -85 109 0
-83 -85 -108 0
-83 -85 107 0
-84 -85 -109 0
-84 -85 108 0
-82 -86 -107 0
-82 -86 108 0
-83 -86 109 0
-83 -86 -108 0
-84 -86 107 0
-84 -86 -109 0
-82 -87 101 0
-83 -87 102 0
-84 -87 103 0
-88 -82 -76 104 0
-88 -83 -77 105 0
-88 -84 -78 106 0
92 89 -82 107 0
93 89 84 -109 0
93 90 -83 108 0
94 90 82 -107 0
94 91 -84 109 0
92 91 83 -108 0
95 76 -101 0
96 77 -102 0
97 78 -103 0
98 79 -104 0
99 80 -105 0
100 81 -106 0
-76 101 0
-77 102 0
-78 103 0
-79 104 0
-80 105 0
-81 106 0
113 112 110 111 0
-110 -111 0
-110 -112 0
-110 -113 0
-111 -112 0
-111 -113 0
-112 -113 0
-109 -111 119 0
109 -119 0
111 -119 0
-109 -111 119 0
109 -119 0
111 -119 0
-108 -111 118 0
108 -118 0
111 -118 0
-108 -111 118 0
108 -118 0
111 -118 0
-107 -111 117 0
107 -117 0
111 -117 0
-107 -111 117 0
107 -117 0
111 -117 0
-109 -110 116 0
109 -116 0
110 -116 0
-109 -110 116 0
109 -116 0
110 -116 0
-108 -110 115 0
108 -115 0
110 -115 0
-108 -110 115 0
108 -115 0
110 -115 0
-107 -110 114 0
107 -114 0
110 -114 0
-107 -110 114 0
107 -114 0
110 -114 0
107 -120 0
112 -120 0
-107 -112 120 0
108 -121 0
112 -121 0
-108 -112 121 0
109 -122 0
112 -122 0
-109 -112 122 0
107 -123 0
101 -123 0
113 -123 0
-113 -107 -101 123 0
108 -124 0
102 -124 0
113 -124 0
-113 -108 -102 124 0
109 -125 0
103 -125 0
113 -125 0
-113 -109 -103 125 0
-107 -110 -132 0
-107 -110 134 0
-108 -110 -133 0
-108 -110 132 0
-109 -110 -134 0
-109 -110 133 0
-107 -111 -132 0
-107 -111 133 0
-108 -111 134 0
-108 -111 -133 0
-109 -111 132 0
-109 -111 -134 0
-107 -112 126 0
-108 -112 127 0
-109 -112 128 0
-113 -107 -101 129 0
-113 -108 -102 130 0
-113 -109 -103 131 0
117 114 -107 132 0
118 114 109 -134 0
118 115 -108 133 0
119 115 107 -132 0
119 116 -109 134 0
117 116 108 -133 0
120 101 -126 0
121 102 -127 0
122 103 -128 0
123 104 -129 0
124 105 -130 0
125 106 -131 0
-101 126 0
-102 127 0
-103 128 0
-104 129 0
-105 130 0
-106 131 0
138 137 135 136 0
-135 -136 0
-135 -137 0
-135 -138 0
-136 -137 0
-136 -138 0
-137 -138 0
-134 -136 144 0
134 -144 0
136 -144 0
-134 -136 144 0
134 -144 0
136 -144 0
-133 -136 143 0
133 -143 0
136 -143 0
-133 -136 143 0
133 -143 0
136 -143 0
-132 -136 142 0
132 -142 0
136 -142 0
-132 -136 142 0
132 -142 0
136 -142 0
-134 -135 141 0
134 -141 0
135 -141 0
-134 -135 141 0
134 -141 0
135 -141 0
-133 -135 140 0
133 -140 0
135 -140 0
-133 -135 140 0
133 -140 0
135 -140 0
-132 -135 139 0
132 -139 0
135 -139 0
-132 -135 139 0
132 -139 0
135 -139 0
132 -145 0
137 -145 0
-132 -137 145 0
133 -146 0
137 -146 0
-133 -137 146 0
134 -147 0
137 -147 0
-134 -137 147 0
132 -148 0
126 -148 0
138 -148 0
-138 -132 -126 148 0
133 -149 0
127 -149 0
138 -149 0
-138 -133 -127 149 0
134 -150 0
128 -150 0
138 -150 0
-138 -134 -128 150 0
-132 -135 -157 0
-132 -135 159 0
-133 -135 -158 0
-133 -135 157 0
-134 -135 -159 0
-134 -135 158 0
-132 -136 -157 0
-132 -136 158 0
-133 -136 159 0
-133 -136 -158 0
-134 -136 157 0
-134 -136 -159 0
-132 -137 151 0
-133 -137 152 0
-134 -137 153 0
-138 -132 -126 154 0
-138 -133 -127 155 0
-138 -134 -128 156 0
142 139 -132 157 0
143 139 134 -159 0
143 140 -133 158 0
144 140 132 -157 0
144 141 -134 159 0
142 141 133 -158 0
145 126 -151 0
146 127 -152 0
147 128 -153 0
148 129 -154 0
149 130 -155 0
150 131 -156 0
-126 151 0
-127 152 0
-128 153 0
-129 154 0
-130 155 0
-131 156 0
163 162 160 161 0
-160 -161 0
-160 -162 0
-160 -163 0
-161 -162 0
-161 -163 0
-162 -163 0
-159 -161 169 0
159 -169 0
161 -169 0
-159 -161 169 0
159 -169 0
161 -169 0
-158 -161 168 0
158 -168 0
161 -168 0
-158 -161 168 0
158 -168 0
161 -168 0
-157 -161 167 0
157 -167 0
161 -167 0
-157 -161 167 0
157 -167 0
161 -167 0
-159 -160 166 0
159 -166 0
160 -166 0
-159 -160 166 0
159 -166 0
160 -166 0
-158 -160 165 0
158 -165 0
160 -165 0
-158 -160 165 0
158 -165 0
160 -165 0
-157 -160 164 0
157 -164 0
160 -164 0
-157 -160 164 0
157 -164 0
160 -164 0
157 -170 0
162 -170 0
-157 -162 170 0
158 -171 0
162 -171 0
-158 -162 171 0
159 -172 0
162 -172 0
-159 -162 172 0
157 -173 0
151 -173 0
163 -173 0
-163 -157 -151 173 0
158 -174 0
152 -174 0
163 -174 0
-163 -158 -152 174 0
159 -175 0
153 -175 0
163 -175 0
-163 -159 -153 175 0
-157 -160 -182 0
-157 -160 184 0
-158 -160 -183 0
-158 -160 182 0
-159 -160 -184 0
-159 -160 183 0
-157 -161 -182 0
-157 -161 183 0
-158 -161 184 0
-158 -161 -183 0
-159 -161 182 0
-159 -161 -184 0
-157 -162 176 0
-158 -162 177 0
-159 -162 178 0
-163 -157 -151 179 0
-163 -158 -152 180 0
-163 -159 -153 181 0
167 164 -157 182 0
168 164 159 -184 0
168 165 -158 183 0
169 165 157 -182 0
169 166 -159 184 0
167 166 158 -183 0
170 151 -176 0
171 152 -177 0
172 153 -178 0
173 154 -179 0
174 155 -180 0
175 156 -181 0
-151 176 0
-152 177 0
-153 178 0
-154 179 0
-155 180 0
-156 181 0
188 187 185 186 0
-185 -186 0
-185 -187 0
-185 -188 0
-186 -187 0
-186 -188 0
-187 -188 0
-184 -186 194 0
184 -194 0
186 -194 0
-184 -186 194 0
184 -194 0
186 -194 0
-183 -186 193 0
183 -193 0
186 -193 0
-183 -186 193 0
183 -193 0
186 -193 0
-182 -186 192 0
182 -192 0
186 -192 0
-182 -186 192 0
182 -192 0
186 -192 0
-184 -185 191 0
184 -191 0
185 -191 0
-184 -185 191 0
184 -191 0
185 -191 0
-183 -185 190 0
183 -190 0
185 -190 0
-183 -185 190 0
183 -190 0
185 -190 0
-182 -185 189 0
182 -189 0
185 -189 0
-182 -185 189 0
182 -189 0
185 -189 0
182 -195 0
187 -195 0
-182 -187 195 0
183 -196 0
187 -196 0
-183 -187 196 0
184 -197 0
187 -197 0
-184 -187 197 0
182 -198 0
176 -198 0
188 -198 0
-188 -182 -176 198 0
183 -199 0
177 -199 0
188 -199 0
-188 -183 -177 199 0
184 -200 0
178 -200 0
188 -200 0
-188 -184 -178 200 0
-182 -185 -207 0
-182 -185 209 0
-183 -185 -208 0
-183 -185 207 0
-184 -185 -209 0
-184 -185 208 0
-182 -186 -207 0
-182 -186 208 0
-183 -186 209 0
-183 -186 -208 0
-184 -186 207 0
-184 -186 -209 0
-182 -187 201 0
-183 -187 202 0
-184 -187 203 0
204 -188 -182 -176 0
205 -188 -183 -177 0
206 -188 -184 -178 0
192 189 -182 207 0
193 189 184 -209 0
193 190 -183 208 0
194 190 182 -207 0
194 191 -184 209 0
192 191 183 -208 0
195 176 -201 0
196 177 -202 0
197 178 -203 0
198 179 -204 0
199 180 -205 0
200 181 -206 0
-176 201 0
-177 202 0
-178 203 0
204 -179 0
205 -180 0
206 -181 0
